(declare-fun i2 () Int)
(declare-fun i4 () Int)
(declare-fun i5 () Int)
(assert (distinct i2 858))
(assert (< i5 i4))
(push)
(assert (= (* (- i2 i5) 7) 1000))
(push)
(assert false)
(check-sat)
(assert true)
(check-sat)
(assert false)
(check-sat)
(pop)
(check-sat)
